
Gurobi 8.1.1 (mac64, Python) logging started Wed Feb 26 08:52:12 2020

Academic license - for non-commercial use only

Gurobi 8.1.1 (mac64, Python) logging started Wed Feb 26 08:53:04 2020

Academic license - for non-commercial use only

Gurobi 8.1.1 (mac64, Python) logging started Wed Feb 26 08:55:32 2020

Academic license - for non-commercial use only

Gurobi 8.1.1 (mac64, Python) logging started Wed Feb 26 09:33:53 2020

Academic license - for non-commercial use only
